(declare-fun v1 () (_ BitVec 11))
(declare-fun v5 () (_ BitVec 12))
(declare-fun v8 () (_ BitVec 10))
(assert
(let (($e1 (_ bv0 1)))
(let (($e12 (_ bv1 3)))
(let (($e15 (_ bv0 9)))
(let (($e20 (_ bv0 10)))
(let (($e40 (_ bv1023 10)))
(let (($e79                     $e12 ))
(let (($e80                   $e79      ))
(let (($e81 (concat $e15 $e80)))
(let (($e115                        $e1 ))
(let (($e116                  $e115 ))
(let (($e160 ((_ extract 10 0) $e81)))
(let (($e161 ((_ extract 10 0) v5)))
(let (($e162      (bvult $e161 $e160)         ))
(let (($e163 (   extract        v5)))
(let (($e165        $e163              ))
(let (($e167              $e162 ))
(let (($e168 (bvand (bvnot $e165)        $e167 )))
(let (($e169             $e168          ))
(let (($e170 (concat $e20 $e169)))
(let (($e171 (bvand v1 $e170)))
(let (($e583 (   extract      v8)))
(let (($e584             $e583          ))
(let (($e585            $e584 ))
(let (($e586 (ite        $e585  $e171 $e170)))
(let (($e587 ((_ extract 9 0) $e586)))
(let (($e588                    $e40      ))
(let (($e589 (concat $e588 $e116)))
(let (($e590 ((_ extract 9 0) $e589)))
                  (bvult $e590 $e587)
                                                                                                                                                                                                                                                                                                                                                                                                                                                                                                                                                                                                                                                                                                                                                                                                                                                                                                                                                                                                                                                                                                                                                                                                                                                                                                                                                                                                                                                                                                                                                                                                                                                                                                                                                                                                                                                                                                                                                                                                                                                                                                                                                                                                                                                                                                                                                                                                    ))))))))                                                                                                                                                                                                                                                                                                                                                                                                                           ))))) ) ))))                                           ))                                 )))              )                   )    )  )          ))
